89 89
2 43
36 40
52 35
44 37
85 30
35 14
58 37
29 39
70 36
26 3
65 13
27 18
61 7
51 11
4 22
45 35
11 21
83 24
3 2
54 15
13 16
5 26
32 29
72 41
78 3
6 36
9 22
56 27
77 19
31 27
84 5
88 11
15 33
25 8
28 21
53 1
8 44
48 5
74 19
75 7
60 20
49 41
22 42
33 32
86 16
16 6
79 23
46 4
82 24
50 45
69 9
7 9
20 20
81 26
41 2
1 25
24 17
21 34
68 43
73 28
23 33
43 25
12 42
64 30
14 39
89 23
80 10
18 4
66 31
63 6
57 18
47 38
19 32
87 28
62 14
38 15
37 29
55 13
67 17
40 34
30 1
34 31
59 10
39 38
42 8
17 12
76 40
10 44
71 12
